21
Properties=species:S:1:pos:R:3:forces:R:3 energy=-17617.8287419 step=0 source_index=161596 energy_unit=electron_volt forces_unit=electron_volt_per_angstrom step_unit=dimensionless
C 2.1527507800 -0.9379012100 -0.0537857500 -2.7645861017 2.6996737634 -0.7576574216
C 0.9995671900 1.1326273800 -1.6730030700 -0.9139867288 -0.8661568012 2.0242634704
C 2.7321827300 -0.4485968400 -1.1927555300 3.1066545391 -2.2101969761 -0.2291957138
C 2.1479430700 0.4188028300 -2.0840523300 -0.3805881425 1.8339431482 -0.0423941522
C -3.1570548900 1.4224093900 0.3306765400 0.0690727436 1.9259682858 0.8922072206
C 0.9116885600 -0.3372782700 0.2977275400 -0.5774682237 0.1499289053 -0.1915657133
C 0.3610562900 0.7261834300 -0.4233974500 0.2260071342 0.7828944467 -2.1809379225
O -0.4016609400 -0.1225990900 2.2621943500 -0.3357966421 -1.2496714765 -0.1015165714
O -2.1312884900 -0.4888836900 -0.8022446200 0.5308010005 3.8972956175 2.1021697024
O 0.2986745600 -2.2499094800 1.4424636800 -0.7304881094 2.0164213480 0.7182619472
C 0.1239993000 -0.8329653900 1.4223021100 1.2628920900 -1.1976942050 0.5835925405
C -2.0459657700 0.6461643500 -0.2210720900 0.6179635132 -3.8372323801 -2.0555845489
O -0.8809646800 1.3626519300 -0.0609963300 1.6849030219 -1.0071923114 -0.5280857611
H -0.0247258200 -2.4637190200 2.3340219200 -0.3109608120 -0.5415304206 0.4140603089
H 2.4795641200 -1.7073928900 0.5510198500 1.2560580973 -1.9325472252 1.4152374211
H 0.4912696700 1.9994337400 -2.0923406400 0.1345035706 0.1271005927 -0.9571280950
H 3.7781926300 -0.8589183300 -1.4089749100 -1.1300338713 0.3682992969 -0.1756699181
H 2.7565665600 0.5890161600 -2.9842331600 -0.4657385097 0.5134623535 -0.2422137244
H -2.8209541200 2.3396409800 0.9397390400 -0.2952356866 -1.1239173192 -0.7212782629
H -3.7603328600 1.7680137100 -0.5067043300 -0.4744524418 0.3093477531 -0.5332604666
H -3.8067833300 0.8057718100 0.9309315200 -0.5095203378 -0.6581963444 0.5666957119
21
Properties=species:S:1:pos:R:3:forces:R:3 energy=-17616.8052725 step=100 source_index=20431 energy_unit=electron_volt forces_unit=electron_volt_per_angstrom step_unit=dimensionless
C 2.3689973800 -0.3685315900 -0.3135728700 -1.5399241077 3.6668037076 2.2911524853
C 0.6239567100 1.6135834900 0.6922421500 1.6889088010 3.8639224900 2.2482289943
C 2.9469559300 0.8353461500 0.1787375500 -2.3822558824 2.5010805561 1.5282186968
C 1.9828420100 1.9327696300 0.7433956100 1.9842963370 -4.2123598590 -2.9669849534
C -3.6091680800 0.6345101500 0.3163929500 2.6294345616 -0.2221510448 2.1783680019
C 0.9407037300 -0.5625640700 -0.1506922400 0.8228908393 -0.9833143715 -0.8735760800
C 0.1058236100 0.4440256800 0.2909381700 -2.4245040473 -1.9967953447 -0.0928399203
O -0.6800143800 -2.4092584700 0.0663187000 -0.2129921061 0.1104579434 0.2460244081
O -1.9067156700 2.0532080900 -0.6458927700 0.1419921149 -0.7956855831 0.4703024753
O 1.3067565200 -2.7130116800 -1.0082206900 -1.5595380783 -0.1457876291 1.4546322784
C 0.3499362800 -1.9118246300 -0.3264605200 2.0266002949 -0.5332041594 -1.4046346536
C -2.1838474100 1.0177750000 -0.0517866100 -0.6642068642 1.0577281710 -1.3674235887
O -1.2928053000 0.1096928800 0.4031133100 1.8547043451 0.4970586111 0.2810372825
H 0.9089656500 -3.5436715500 -0.6426838400 0.5778344516 -0.4772533504 -0.9232293312
H 3.0682499600 -1.0200026300 -0.7111565200 1.0974180881 -2.2913956602 -0.9127158324
H 0.2329172900 2.4402961300 1.2995715900 -1.8583322749 -0.2200988415 -0.5406356252
H 4.0407087000 1.0005357400 0.3427194300 -0.4642321002 -0.2077070488 -0.6444104995
H 2.1627333500 2.9916696600 0.9270157800 0.9855652697 0.0668163432 0.5072933509
H -3.7379829700 1.5597129300 0.9803383500 -0.9436024458 -1.4862896058 0.0761488314
H -4.2452946300 0.6820821100 -0.5063706800 -1.4568470268 0.4835065310 -2.0485421425
H -3.6073092600 -0.4465352200 0.6807091200 -0.3032103237 1.3246681965 0.4935857704
21
Properties=species:S:1:pos:R:3:forces:R:3 energy=-17617.9662473 step=200 source_index=63614 energy_unit=electron_volt forces_unit=electron_volt_per_angstrom step_unit=dimensionless
C 2.1906046700 -0.3289322500 -0.2380342900 1.5415280134 -1.5455582693 -1.2821934659
C 0.7712910100 1.9250873300 0.4355683600 -1.9670906675 -1.4432070663 -1.3724481418
C 2.7943640600 0.9332475200 -0.3940646400 -0.3170228567 -1.8732333616 -0.2366563359
C 2.0264266700 2.0262014500 -0.1031531900 1.4320764513 1.1403343285 2.0189101761
C -3.4878047300 0.6386434300 0.1363247500 0.9967025182 4.1483990860 0.1713504644
C 0.8674789900 -0.5559483900 0.1546267500 -0.0404387252 2.1128642583 -0.1466127990
C 0.1419217700 0.6484538500 0.3799865100 -0.9394709398 -0.1110118105 1.6378254507
O -0.9325335900 -2.1172957500 0.0255201800 -1.0557325319 -0.2618664672 0.1718265299
O -1.5738723200 1.0817081400 -1.3418555000 0.3419234786 0.8368458628 -2.9505829079
O 1.1838970300 -2.8852361200 0.3035406100 -0.0460349374 0.2482168394 0.3831164113
C 0.2395039500 -1.8888637000 0.1844698800 0.9845792001 -0.7685208476 -0.3991579367
C -2.0532382400 0.8127036700 -0.3001003500 -0.4976740305 -0.7797540496 2.5195988253
O -1.2200550400 0.5199466600 0.7822220500 0.9809625318 0.6016236370 -0.3641977185
H 0.7285262100 -3.7476714400 0.4344568700 -0.1647257081 0.3219168491 -0.2636946246
H 2.7346302100 -1.2488307300 -0.5856863400 -0.0164198375 0.5775230910 0.5167890528
H 0.2163736000 2.8563649700 0.5313772900 -0.5229812981 0.1044587364 0.6748941696
H 3.8312001800 1.0493965900 -0.7026142500 0.3678563472 -0.1568844084 -0.1428782199
H 2.5760632500 2.9051536000 0.2216328400 0.2133529862 1.1172615554 -0.8755039447
H -4.1228089000 1.4750331100 -0.3027236200 0.4351418653 -0.9522154364 0.0213859236
H -3.7477790400 -0.3038751700 -0.1962664200 -1.2413457295 -2.6875413950 -0.5210143526
H -3.4479974300 0.8289877100 1.2136112300 -0.4851860785 -0.6296511320 0.4392434437
21
Properties=species:S:1:pos:R:3:forces:R:3 energy=-17617.7248998 step=300 source_index=151981 energy_unit=electron_volt forces_unit=electron_volt_per_angstrom step_unit=dimensionless
C 2.0867989900 -1.0032809600 -0.1878272300 1.7644573312 0.8385238677 -2.1554690867
C 1.0575178600 1.3429237700 -1.5056373200 2.0860901248 -0.4041404779 -1.1568585528
C 2.8868782700 -0.3325271100 -1.1747454300 -2.1180808214 0.4835482343 -0.5612666729
C 2.3302179900 0.8224901000 -1.8343050100 1.0197107052 -1.3028341809 -0.4953031646
C -2.9688452900 1.6169690300 0.4537779800 -1.7299412454 0.1440286344 -3.2378462201
C 0.8616631000 -0.5391631600 0.1657962200 -2.1043072664 3.4389658964 -0.9734987216
C 0.3681724400 0.6792753700 -0.5616739500 -2.2340565069 -1.6382170297 3.5774743719
O -0.7752522900 -0.4673245400 1.9722944500 0.2371250480 0.4565272233 -0.7065480517
O -2.4207504000 -0.4217968000 -0.7808875700 1.1475084782 1.2297406945 0.5264300733
O 0.5590589400 -2.2495974500 1.7531573900 1.8763738615 0.4774080280 -2.8659332888
C 0.1152823000 -1.0112928400 1.3306512800 -1.1247548305 -1.7674048955 2.4748987019
C -2.1158256400 0.6213893100 -0.2296327500 0.4656867277 -0.5512161783 0.0954578692
O -0.8435633400 1.2821770900 -0.1500967800 0.6292828472 -1.6677624527 -1.1250585292
H 0.2737129900 -2.6405791600 2.5631824900 -1.2164329720 0.1954332698 1.5166821045
H 2.3770491200 -1.9698723100 0.1192050100 0.7043854967 -1.4100454378 0.9668034141
H 0.6130445300 2.1503914900 -2.0693634600 -0.2546718001 0.5664259517 -0.1677023259
H 3.6930054900 -0.9055766500 -1.6505269300 0.4514968082 0.3224844973 0.2038913258
H 2.8145570200 1.1649668600 -2.7852809700 0.0066225966 0.1131905120 0.7159021371
H -4.0034289100 1.2723672400 0.4924148400 -0.6170400757 -0.1230120241 -0.4934140207
H -2.7362093400 1.7202279600 1.4577360400 1.3548803066 0.8968771157 2.4646777946
H -2.8560179500 2.5055599300 -0.2593139200 -0.3443347622 -0.2985212996 1.3966808939
21
Properties=species:S:1:pos:R:3:forces:R:3 energy=-17618.1013737 step=400 source_index=141728 energy_unit=electron_volt forces_unit=electron_volt_per_angstrom step_unit=dimensionless
C 2.0863281400 -1.0814981800 -0.5347423400 -3.2274778858 1.7085988763 0.8387361895
C 0.8543684400 1.2868496600 -1.5956876500 0.9973336726 -1.4459348013 0.0682249479
C 2.5136366700 -0.5611701700 -1.7079590800 -0.4107241994 2.8103805895 -2.5002961124
C 1.9558737500 0.6993722900 -2.2712798700 -0.0298610003 -1.1783926234 2.0488912983
C -3.0232455000 1.7879109300 0.2949211800 -2.6826760447 -1.1666819674 1.6507186599
C 0.9219733600 -0.5577056400 0.1391845300 -0.0083796373 0.4286882930 -0.1465039385
C 0.3192555000 0.5914531200 -0.4700176900 0.1458771035 0.3589781215 0.5611753987
O 0.3965584000 -2.3731275200 1.7631783900 0.4954559396 -0.1331524044 -0.4509129620
O -2.2939113200 -0.3381338200 -0.3842171800 0.5589800878 -0.2474618606 0.4644811373
O -0.2251497800 -0.2609306100 2.2275999100 0.8896891848 0.8648798370 -1.5262721658
C 0.3781987500 -1.2054059200 1.4372446500 -0.3441237775 0.9382800561 -0.4773739352
C -2.0247517900 0.7647454300 0.0427086300 0.9532846554 -0.6481058950 -1.4544973469
O -0.7443158800 1.3008833700 0.0926082600 -0.2254237509 -0.5459615115 0.1546429205
H -0.7059806100 -0.7190499000 2.9049814900 -0.6220509505 -0.9863883827 1.2231413921
H 2.5759496700 -1.8411948100 -0.0456848200 1.3904230854 -2.5364012429 1.0862447927
H 0.3942345100 2.2610141400 -1.8358722600 0.1449224014 -0.1918907008 -0.1826577143
H 3.2639590400 -1.0828413400 -2.2890598200 0.7808184864 -0.0654431683 -0.1502259706
H 2.5048613800 1.2744776600 -3.0298855600 -0.1337141905 -0.3173392052 -0.3877194577
H -3.9914172000 1.3871174400 -0.1304775600 0.5972031390 0.5020366272 0.3315078874
H -3.1884785800 1.9708326600 1.3819103800 0.0481266329 -0.2221291904 -0.0085415139
H -2.7897681300 2.7340137100 -0.0782994900 0.6823170993 2.0734406047 -1.1427636098
21
Properties=species:S:1:pos:R:3:forces:R:3 energy=-17617.5789381 step=500 source_index=60740 energy_unit=electron_volt forces_unit=electron_volt_per_angstrom step_unit=dimensionless
C 2.3546432200 -0.3256034100 -0.0634024700 2.4921435550 -4.0469819649 0.6843940881
C 0.7390722700 1.8004444200 -0.0954522100 -0.4030356748 -0.2629763097 0.1989078589
C 2.9441735300 0.9230580400 0.0018684500 -0.2306409824 -1.0791013934 -0.4552219770
C 2.1088378200 1.9946791900 -0.0397233000 0.0162380605 2.6619504318 -1.3925577697
C -3.4025458400 0.5510303500 0.6609562800 1.4989422626 -0.6146165022 -4.0141634244
C 1.0152224000 -0.6406352100 -0.0467873300 -1.0764607673 0.3226999043 -0.2932356767
C 0.2123652100 0.4957954800 -0.0621337500 -0.1699514242 0.3249672061 0.6998333581
O -0.6388031000 -2.3923730100 -0.7061822200 1.4168790706 1.1072863942 1.4785231766
O -2.1098365200 1.9243904300 -0.9566986100 0.7114580878 -0.4915718765 -0.0077928601
O 0.8162680700 -2.7565794800 1.0483318600 0.4835615011 1.9637066841 -0.3818920519
C 0.2524359900 -1.9740572100 0.0453625900 0.4359120651 -1.9037992041 -0.8691173239
C -2.1470410100 0.9997245100 -0.1876730700 -1.3719003425 -0.5446727717 1.9446423125
O -1.0576912600 0.1560065100 0.2645372600 -2.6299764988 2.2300446600 -1.0768520379
H 0.3232020800 -3.5536707400 1.2559370800 -0.7903900872 -0.7476265189 -0.4110573630
H 3.0140139200 -1.2598665000 -0.0334593700 -0.2754784541 1.0827807451 -0.0870200735
H 0.1513762500 2.6993230700 -0.0963007200 -0.9481655886 0.3939704785 -0.1155140182
H 4.0003744000 0.9983758100 -0.0648900700 1.4278534140 0.1793316321 0.0793332458
H 2.4928850400 3.0385449800 -0.3069063500 -0.2739101839 -0.9934669903 0.8888250370
H -3.8948521800 1.3481164900 1.1246997700 -0.6190121634 1.7324076534 1.4585245175
H -4.1560729100 0.1521487700 -0.0527786300 0.0728909863 0.0256791006 -0.1600525220
H -3.0495651300 -0.2819970700 1.1911130400 0.2330432671 -1.3400113073 1.8314935552
21
Properties=species:S:1:pos:R:3:forces:R:3 energy=-17617.9289902 step=600 source_index=172172 energy_unit=electron_volt forces_unit=electron_volt_per_angstrom step_unit=dimensionless
C 1.7635018700 -1.3406733400 -0.4893940500 0.7036506753 -0.1457053538 -1.3094713815
C 1.4204294800 1.3484054500 -0.5276371400 -0.8126965687 1.0622537757 -0.6876745589
C 2.6564085200 -0.5757236100 -1.2893778600 -1.0878923557 0.7605980954 0.7042089647
C 2.4516301200 0.8438853700 -1.3418243400 -0.2750891891 -2.4276248526 1.7502198977
C -3.1249454400 1.6168970700 0.3129185900 2.9700160786 -2.9082668658 2.6383108846
C 0.6861412900 -0.7633830700 0.2046110200 -0.3150824450 -1.1423658601 0.2003844436
C 0.3883356400 0.5955392300 0.1074546300 1.9127530202 -0.1726859469 -0.0113143461
O -1.4769615700 -1.5256485500 0.9522579900 2.9340233053 -0.5516121283 0.5449258711
O -1.3550789400 1.8917349300 -1.3536278300 0.2746954503 0.2361842813 -0.2595138048
O 0.3906639000 -2.7272433500 1.5020309100 1.8135965674 0.8421318457 -0.4496905566
C -0.2158918400 -1.6671000100 0.9593918800 -3.9498000680 0.3069910798 -1.0268570356
C -1.6702376000 1.5743880300 -0.2386996400 -1.9054190507 -0.5715369967 0.4376642720
O -0.7846563100 1.0224115700 0.6990159600 0.3651725780 1.0681182054 -0.7289006588
H -0.2485614400 -3.2508260000 1.9603258900 -1.4872914105 -0.9529381221 0.7391808557
H 1.7557557500 -2.4478806700 -0.6264222700 0.3979954894 0.4171925299 0.6279616086
H 1.4450285000 2.4298994900 -0.5053551000 -0.6925890173 0.7707071596 0.1653014295
H 3.4982075900 -1.0839097900 -1.7535597800 0.2191888252 -0.1059164492 -0.5423555905
H 3.1371102500 1.5202217900 -1.8362660300 0.3382501432 0.3464665154 -0.3026592848
H -3.7417321500 2.1747783100 -0.3072474300 -1.5930695343 1.4945928298 -1.2660920339
H -3.5278611500 0.5649399700 0.5566097500 0.5575841843 0.7855698854 -1.0349914924
H -3.0061020000 1.8982994000 1.3823090200 -0.3679965751 0.8878463208 -0.1886375351
21
Properties=species:S:1:pos:R:3:forces:R:3 energy=-17617.4573808 step=700 source_index=21001 energy_unit=electron_volt forces_unit=electron_volt_per_angstrom step_unit=dimensionless
C 2.2773029600 -0.2263554900 -0.4176038700 0.7459448116 -1.3246332295 -0.7802503240
C 0.8474858800 1.7816152500 0.9320929200 -0.3634251019 -2.3763397735 -1.4007180404
C 2.9835917400 0.9417967600 -0.0340676700 -2.8348900438 -1.5457648832 0.2312909573
C 2.2033026000 1.8907470500 0.6443548800 0.5717979637 2.0794250021 0.3502448547
C -3.2303692100 0.1061954000 0.4982428500 -6.7447362967 -4.0502782222 0.4704392066
C 0.9145398700 -0.4997104000 -0.1290298900 1.0213831565 1.7061513401 0.4576713643
C 0.2412764700 0.5577865300 0.5362989400 -1.1854070562 0.4533930998 0.5162679415
O -0.8103905100 -1.7055776600 -1.1870061700 -0.2127924342 -0.6519517000 0.1422644976
O -1.9758798500 1.4083364700 -1.0308593700 0.3437356951 -0.5951717616 0.9685255392
O 0.7371163800 -2.8167883400 0.0349509400 1.6349988825 -0.0285606905 0.9356806192
C 0.1949193700 -1.7472354100 -0.4987749300 -0.7174530267 1.8807589811 -0.7372072253
C -2.0883735800 0.7116812400 -0.0344062300 1.8340870786 1.5551580494 -1.3105905313
O -1.1203948800 0.3785324600 0.8788694000 2.2750665313 0.1343424653 -0.3484026077
H 0.1254844100 -3.5335082200 -0.0490743700 -1.1309818371 -1.5335593413 -0.4806684442
H 2.8615786600 -0.9896420900 -1.0403394700 -0.6715157398 0.6342375177 0.8231427046
H 0.2229030700 2.6126717300 1.2742644900 0.0826972260 -0.0099829773 0.3469358447
H 4.0092193800 0.8379656800 -0.2910161200 1.4573530200 1.0389118080 -0.0460629624
H 2.4889738600 2.9130254500 0.9357446600 1.1739177208 -0.0710364495 -0.1146129493
H -3.1655031500 -0.9395924000 1.0558710800 0.5061145000 1.6647881489 -1.3250860522
H -3.8585578100 0.6116465700 1.2361915100 0.4414445139 1.1510897167 0.7251448424
H -4.1294754000 0.0107934200 -0.2618530400 1.7726604365 -0.1109771520 0.5759907134
21
Properties=species:S:1:pos:R:3:forces:R:3 energy=-17617.4453709 step=800 source_index=35078 energy_unit=electron_volt forces_unit=electron_volt_per_angstrom step_unit=dimensionless
C 2.2238850100 -0.2843313300 0.6081455400 -0.1104826260 2.0878237169 -0.2561957959
C 0.9879477000 1.4459643800 -1.2605567000 -0.4430805070 1.8806937780 0.0789870724
C 2.8247816100 0.9422918200 0.2629341700 0.8320909671 0.1345388461 -1.4712834638
C 2.2776639200 1.6945965500 -0.8056991800 -0.3100763010 -0.3264572634 0.6644286990
C -3.4237913800 0.3912486400 -0.7443389600 2.5228101848 0.4183425330 -0.5274765638
C 0.9031003500 -0.4689890400 0.2230897700 -0.3263139501 1.5284215054 -1.3932683712
C 0.2714869100 0.5291997100 -0.6052666900 -1.6535804008 -2.9203390189 2.1197978557
O -1.0306635900 -1.7345042500 0.6023709800 -2.6189920253 -1.0901261304 -0.0383297006
O -1.9450940300 1.2540029100 1.0398446700 -1.0551467317 0.4979591658 0.8091648497
O 1.0650634600 -2.6721769600 0.7639497500 0.0555021514 1.6331960248 -0.7215472003
C 0.1477202600 -1.6514103100 0.4882382800 2.9609439403 -0.8950185165 1.4852609073
C -2.1596411000 0.7521028600 -0.0290610200 2.0130150989 -0.8867843008 0.8551816351
O -1.0721024000 0.4633886100 -0.8240247800 -0.2577270422 -0.5062857869 -2.3243080460
H 0.5137674900 -3.4137431400 0.9151358900 -1.2273687488 -2.1295920626 0.5741396732
H 2.7562810400 -0.9095569600 1.2856788600 0.3184592293 -1.0850801343 0.7113723672
H 0.2932258000 2.1863364000 -1.6957744500 0.8005368953 0.2015433941 -0.8966606802
H 3.8040507500 1.2150501500 0.6877807900 -0.0013063262 -0.0194169727 -0.0781019958
H 2.6071996300 2.5788364900 -1.2996530000 1.6071607749 1.1391425707 0.0736613917
H -3.4140218700 1.2492167700 -1.3954057300 -1.0813984685 0.8977603411 -0.9179706535
H -3.3254712000 -0.4825185800 -1.3805078400 0.1333933167 -0.6211496759 -0.1261944844
H -4.1829009500 0.3425274600 -0.0374051600 -2.1584393796 0.0608280378 1.3793426069
21
Properties=species:S:1:pos:R:3:forces:R:3 energy=-17617.9491188 step=900 source_index=112900 energy_unit=electron_volt forces_unit=electron_volt_per_angstrom step_unit=dimensionless
C 1.9629836100 -1.2179751200 -0.3944694200 1.0589559757 1.7642378618 -0.9693287005
C 0.7535763700 1.0391237800 -1.6194639800 0.6176056670 0.1457069479 -0.6054815776
C 2.5313032900 -0.6637143800 -1.5751729600 0.3670503063 -1.2221935805 -0.0280515606
C 1.9001178800 0.4451257600 -2.1732729900 1.1535629125 -0.0595547246 -0.5113498836
C -2.9672004900 1.8390866900 0.5560412800 -3.6623641320 1.8267765061 0.7535763606
C 0.9964579700 -0.4984089100 0.2810764600 -2.2584036217 -0.9655690788 0.3402410000
C 0.3189097100 0.5567217200 -0.3996417600 -0.5855418996 -0.0339879297 2.4494169077
O 0.9597048900 -1.2710879200 2.6612745100 -0.8043312782 0.2256864148 -2.7152710020
O -2.1898361800 0.5943793400 -1.2675178400 0.2755118271 -0.2354298681 -0.0996623431
O -0.8264270500 -1.7373289600 1.3567203800 0.3789191365 0.2661959996 -0.7469300584
C 0.3974583400 -1.1824057500 1.5418785100 1.1085078225 0.5142010829 2.2495000964
C -1.9602327200 1.1097353100 -0.1947712400 0.6696997181 -0.2412662214 -0.3122617903
O -0.7323866200 1.1258609600 0.4117545500 0.9382872552 -0.2994059135 -1.4150910225
H -1.0004324000 -2.2202471600 2.1891992400 -0.0956068903 0.0196131479 0.2834176100
H 2.3953452600 -2.0772146200 0.0589070400 0.5675742579 -1.1458946995 0.5412731560
H 0.3742538100 1.8668748400 -2.2378257600 -0.5888452018 0.0554425532 0.6273100910
H 3.4470909900 -1.2399310600 -1.9608501600 -1.1078537853 1.0824139515 -0.0125112461
H 2.3330275600 0.9606763200 -3.0729009000 -0.2108907433 -0.6176473189 0.4185688930
H -3.7852654800 2.0280396000 -0.2285210500 0.7965480855 0.1483021168 0.8288270542
H -3.5787828900 1.3165295500 1.3415402400 0.6998220967 -0.6000488362 -0.2953763260
H -2.7828829200 2.8102528600 1.1148133200 0.6817924400 -0.6275783599 -0.7808156068
21
Properties=species:S:1:pos:R:3:forces:R:3 energy=-17617.795874 step=1000 source_index=154311 energy_unit=electron_volt forces_unit=electron_volt_per_angstrom step_unit=dimensionless
C 2.1344081700 -0.9560446000 -0.1745459800 -0.9944324396 1.5795279442 -1.4650806769
C 1.0289475800 1.1776825800 -1.6821755900 -0.9209337472 -1.3682770922 1.2107390579
C 2.8144578100 -0.3094379200 -1.2823230600 0.4061674329 -1.1950157323 0.8722192573
C 2.2581719800 0.6996134800 -2.0575186800 0.4166037472 -1.0096263235 1.4357378568
C -3.2145012800 1.3764107100 0.2132333300 0.0619647740 0.2531009074 0.1230179376
C 0.8104054800 -0.5140664700 0.2093425100 1.4038155001 2.0363036390 -1.8140790092
C 0.3214250900 0.6018008400 -0.6010816600 0.9080390468 0.8248803077 1.6806622440
O -0.3994016700 -0.1425533500 2.3110357300 0.1072536287 0.5777812298 -0.0029735325
O -1.9054204800 -0.5530854200 -0.5241567600 0.0071745097 0.8459485972 0.2499827246
O -0.1013570000 -2.2817162200 1.5284420300 1.0795501023 1.9632810636 -1.0523506054
C 0.0642495100 -0.8559805500 1.4574910500 -0.3018697504 -3.3491654316 0.0532986130
C -1.9136321200 0.6114662300 -0.1603193700 -1.4703784354 0.3690630174 -0.1274183296
O -0.7507219300 1.4031143100 -0.0624096800 -0.6352779404 -2.1631790544 -1.4014143981
H -0.5695222800 -2.4594892500 2.3502931300 -0.4644183510 0.0261218446 0.8028504769
H 2.6454899800 -1.7350411200 0.3557088100 0.3512795695 -0.7396713194 0.6185608833
H 0.6430383000 1.9679512500 -2.2454343700 -1.2454363550 1.8014775688 -0.7567482794
H 3.8645388000 -0.5228265100 -1.5904425800 -0.3604525465 -0.6097855018 0.6378021982
H 2.9097404800 1.1555652200 -2.7723087400 0.2326659834 0.6014707078 -1.0579840472
H -3.7225609600 0.8332716800 1.1053150700 0.6826513942 0.9113654889 -1.1222609630
H -2.9734529200 2.4593983300 0.3942991500 -0.0611974539 -0.5965078098 0.5666757601
H -3.9698197100 1.4710023100 -0.6396443700 0.7972312276 -0.7590940513 0.5487628829
21
Properties=species:S:1:pos:R:3:forces:R:3 energy=-17617.743803 step=1100 source_index=63061 energy_unit=electron_volt forces_unit=electron_volt_per_angstrom step_unit=dimensionless
C 2.3204622900 -0.4422327200 -0.1687574900 -1.2457258098 0.9632727236 0.9091627732
C 0.5693099100 1.7934934000 0.0951722500 1.8599135034 -0.9122851211 0.6181386567
C 2.8114997800 0.8804862800 -0.3621658700 -1.9888018357 -0.2808618818 0.7797796064
C 1.9636647700 2.0578164300 -0.1840373800 -0.8262406271 -1.2951603116 -0.6833056886
C -3.6245996600 0.7154178000 0.1147259200 2.4933891003 -0.0385163112 -1.3943580563
C 0.8928462400 -0.6610376300 0.1333881100 4.2482980735 0.0642376294 -0.5752184568
C 0.0826872100 0.4439452300 0.2537171400 -0.0063003346 1.8346147204 -0.3333132134
O -0.5141611200 -2.3697606200 -0.4896498600 -0.2907927686 -1.1603093335 0.0454290312
O -1.8282115800 1.8838489900 -0.9782617200 0.5176981435 1.8896941824 -1.8312222009
O 1.2275363400 -2.8730974600 0.9682041400 -1.0238721903 -0.7506908113 -0.4205540419
C 0.4631656600 -2.0520784300 0.1533377800 -0.7289968695 -0.4912877696 0.6558568461
C -2.1826897800 1.1176166800 -0.1636465200 -0.3955974213 -2.5794737550 2.0671114224
O -1.2350038100 0.2531888800 0.5521445900 -1.7168432735 0.9111256564 -0.2987146980
H 0.7999477700 -3.7960576000 1.0155449000 0.4948400575 1.4568390564 -0.4227589173
H 3.0438818000 -1.3047552000 -0.1036332600 -0.6844193363 0.5982039667 -0.3263196065
H -0.1544651600 2.5431889900 0.4194056900 0.2479072785 0.5667144295 -0.3396841504
H 3.8675143300 0.8643227200 -0.5143544500 1.2555921619 0.8283355107 -0.3912403267
H 2.3128411400 3.1243192800 -0.4065533900 -0.2328798992 -1.2654417504 0.5300490556
H -4.2660225700 1.4889893700 -0.1723563500 -1.1861609551 1.9701344939 -0.8069870737
H -3.7357396800 -0.0459047400 -0.6597187300 -0.5407762131 -1.0256998848 0.2380854580
H -3.8447994000 0.5129296300 1.1175994800 -0.2502307847 -1.2834453876 1.9800635809
21
Properties=species:S:1:pos:R:3:forces:R:3 energy=-17617.5830516 step=1200 source_index=100253 energy_unit=electron_volt forces_unit=electron_volt_per_angstrom step_unit=dimensionless
C 2.1990234300 -0.8070043800 -0.0293294500 -2.7683680405 0.6154035170 -0.7638206135
C 0.4981011400 0.6915568100 -1.7151282200 2.1209503270 0.9811061537 -3.5223177253
C 2.6633407300 -0.3511523800 -1.1941036200 1.7644623191 1.5692118033 -2.9832179230
C 1.8276483800 0.3801713300 -2.0866150000 -0.4017595333 -0.5120936009 1.7732882999
C -3.3095320800 1.3165792500 0.4501230800 0.7989154546 -3.6678207847 -1.2086728678
C 0.8028311200 -0.6500395700 0.2533434100 4.2811243273 -2.1665420576 2.4391115140
C 0.0772591700 0.1416409200 -0.5331291500 -3.8118941563 1.0229020101 -1.1163600751
O 1.3514308000 -2.0072758100 2.0987515100 -0.3586868155 -0.7348741033 1.0124497036
O -1.5673241100 2.3569540000 -0.8935385000 0.3481331561 0.1242994270 -0.2414902159
O -0.8366965700 -1.1892854000 1.9163289900 2.5160018002 -1.2950313450 0.5309360348
C 0.5097627500 -1.3864660400 1.4993607200 -2.5432154382 1.7659719682 -0.7880875613
C -1.9579750900 1.3507655400 -0.3492548300 -1.8587991358 0.6365155153 0.3190032748
O -1.2682893100 0.1922484300 -0.2277281500 -0.6353510625 0.0427067984 0.4525429387
H -0.7143919800 -1.7255508100 2.7346749400 -0.9370386246 0.0788046269 0.3759804168
H 2.8303488700 -1.3960705100 0.5254717200 1.4292343022 -1.5903773834 2.1310609854
H -0.0639854100 1.2960815700 -2.5185188700 0.1800351888 -0.9171517570 1.6754428527
H 3.7471546600 -0.5004951400 -1.4602933700 -0.7449037204 0.0117953995 0.0331266615
H 2.2380043700 0.6414099900 -3.0304036600 0.3461792204 0.6510385983 -1.3076277461
H -3.0567010000 2.0664572100 1.1585007900 -0.5263516547 1.3056497963 1.2918149975
H -4.2523651000 1.4656451800 -0.1755595600 1.0612682204 0.2107514409 0.6213409660
H -3.3327877500 0.2582186400 0.9773404100 -0.2599361342 1.8677338743 -0.7245039692
21
Properties=species:S:1:pos:R:3:forces:R:3 energy=-17617.7339805 step=1300 source_index=77008 energy_unit=electron_volt forces_unit=electron_volt_per_angstrom step_unit=dimensionless
C 2.2619228300 0.1050809800 0.7556570300 -0.6217125418 -0.1760702389 0.5214026406
C 0.8715045200 1.4158741700 -1.2984648600 -1.0589453827 -0.7589977378 0.5110558522
C 3.0138264100 0.9983865700 -0.0047125700 -2.4254890370 -0.4709467938 -2.2438609468
C 2.2608406700 1.6046541600 -1.1085942500 -0.2305818985 1.3501173891 0.8769485449
C -3.2943452500 -0.1449541700 -1.5352383700 1.8738872960 1.8306687452 -0.2783561873
C 0.8834929500 -0.1614806500 0.5182935100 0.5057763485 -0.6856091401 -0.0525686767
C 0.1763191300 0.4284912300 -0.5513164100 1.7023114486 -0.1708576353 0.3128684164
O 1.0000933900 -1.8137633900 2.2568469000 1.2114435916 -1.3042250964 1.9451276854
O -2.5265750800 1.1767166300 0.3241504400 1.1923615309 0.7328853034 1.0709798949
O -0.6387739200 -1.8831591500 0.7446563100 -1.1860263836 -2.6476432186 0.5084278246
C 0.4580089800 -1.3826210000 1.2893372000 -0.9205664908 2.5212839264 -1.7127568646
C -2.2396140700 0.4499486800 -0.5744344500 -1.4858984895 -1.7970740915 -2.3170621625
O -1.0166827500 -0.0409411400 -1.0584756400 -0.1554672162 1.2525607796 1.1056858823
H -0.7483488600 -2.7649400700 1.2386817300 -0.2362655281 1.1102432145 -0.6058193178
H 2.5669052700 -0.5691865500 1.5878624300 0.8001670677 0.5791503937 -0.2697155830
H 0.0808264000 1.8770204700 -1.9586428600 1.5653121594 0.3427244802 -0.3018505700
H 4.0885386500 0.9391760000 -0.0496713600 0.8571002953 0.5311904712 0.3701992908
H 2.6619658000 2.4604751300 -1.6972766400 0.4392060599 -0.5650207409 0.0281873148
H -3.1652489700 -1.2025894700 -1.5683239400 0.2247644171 -1.4366578490 -0.3799363164
H -4.2335867800 0.0922198200 -1.0905412700 -1.4238128736 0.4351838772 0.0705133842
H -3.0750745700 0.3443085300 -2.5468758000 -0.6275644245 -0.6729061411 0.8405298426
21
Properties=species:S:1:pos:R:3:forces:R:3 energy=-17618.0024384 step=1400 source_index=69838 energy_unit=electron_volt forces_unit=electron_volt_per_angstrom step_unit=dimensionless
C 2.2444273400 -0.2789062800 -0.0946337700 -0.5541344321 -0.4441663353 0.2130173029
C 0.7723733300 1.9966477300 -0.0988215900 -5.1468957715 2.8492750587 1.0752997599
C 2.8317504600 0.9362111200 -0.3559926300 -0.1311641701 1.3313025688 0.2079494525
C 2.0916765900 2.1457361500 -0.2686012400 4.0643223602 0.1719930860 -0.6223093464
C -3.4753196600 1.0852198200 -0.2029844500 -0.6579941529 -0.4085375789 0.8919838432
C 0.8635057100 -0.3991065000 0.2489981600 0.1921737278 1.4075216427 -1.2742665999
C 0.0904127800 0.8015410800 0.1149330500 -0.3449445251 -2.4525231605 1.0115428240
O -0.7565472200 -2.0437123300 0.9898294000 -0.5225107862 0.5792246472 -0.2908195595
O -1.8805600300 -0.2304591800 -1.5253731700 -0.6637681311 0.8275198024 1.5845622675
O 1.3366039700 -2.6605454800 0.5928475100 0.1261129804 -1.4017357346 -0.1771498966
C 0.3548407400 -1.7245869300 0.6018021900 -0.5613726023 -1.1789046843 1.0257113005
C -2.1797470300 0.4124593600 -0.5099962900 -0.4564421198 -0.8016384074 -3.0711477044
O -1.3351182700 0.8094470400 0.4017633200 4.3360397529 1.2570227238 1.6194065803
H 0.8911773400 -3.5452083900 0.8010564900 0.4239341686 1.3190567119 -0.1616983367
H 2.8312534600 -1.1932418600 -0.1333776500 0.2352696370 -0.2856561668 0.0730114168
H 0.0373277400 2.8869019500 0.0512746800 1.2448823851 -0.9077353995 -0.5007597659
H 3.8827748200 1.0744552100 -0.5517120700 0.8719954171 -0.4475205454 -0.1939766369
H 2.7583245100 3.1048467300 -0.3402396500 -1.7707933526 -1.1957785787 0.0651659520
H -3.7475760600 1.1585894200 0.8881856000 0.2091335484 -0.6162196880 -0.5249977631
H -3.4319901300 2.1418247200 -0.4625407200 0.2283640647 0.5893856992 -0.6237713272
H -4.2077366000 0.5736343000 -0.8036048500 -1.1222079469 -0.1918856100 -0.3267537630
21
Properties=species:S:1:pos:R:3:forces:R:3 energy=-17617.4879446 step=1500 source_index=26491 energy_unit=electron_volt forces_unit=electron_volt_per_angstrom step_unit=dimensionless
C 2.1259533700 -0.3566263500 0.5411290700 -2.4645383380 4.1125362049 -2.8271713858
C 0.9127383800 1.9246023400 -0.7265120700 1.1663799656 0.9886053423 -0.5182294877
C 2.7847726100 0.8976386400 0.3468184500 -0.2422483829 -1.9947962089 0.4805560870
C 2.2697174000 1.9965638200 -0.3225492300 -1.4145892460 -1.8007599224 0.4602696700
C -3.4027157500 0.3169477600 -0.2587702200 -1.7778699547 0.8899200185 -1.2927260423
C 0.8056268800 -0.4189863600 -0.0157731800 0.9215542573 0.4204614821 1.3741773116
C 0.1727021200 0.7931376800 -0.5030356800 -1.2075542835 -2.7835042803 -0.0551757756
O -0.9254147400 -2.1224128000 -0.0479147700 -4.1490935410 0.2816091473 0.0403568099
O -1.8067512300 1.0532589700 1.3242902100 0.7619368689 0.0909585925 0.5753675294
O 1.1337820700 -2.8417633900 0.1620308900 0.1417567046 1.6822359135 0.8275113692
C 0.1883539200 -1.7528803300 0.0678354100 3.0319247511 -1.5844019335 -0.6827218424
C -2.1084359500 0.7266315100 0.2116764000 1.2849625442 1.6686839876 0.2636607374
O -1.1896263600 0.6666186600 -0.8884477900 1.0531430709 0.5953340497 0.9200451739
H 0.6117324000 -3.4713780200 0.7035014400 0.0710424144 -0.2603396946 -0.4562372029
H 2.5750708500 -1.2165798100 0.9005775100 1.2029622415 -1.9651964328 1.0159643505
H 0.5634470100 2.7134579900 -1.3871332600 -0.7104079463 0.4757485351 0.0955816421
H 3.7919088100 0.8052854400 0.6495829400 1.8499439473 0.6932203260 0.5280277056
H 2.9121546000 2.8179295000 -0.5228980900 0.5844232640 1.2433000766 -0.3678227171
H -3.0814002000 -0.7374896500 -0.2102034000 -1.3464659080 -0.9481991158 -0.4790259205
H -4.3419290100 0.6956521700 0.3068392700 1.5830732387 -0.9170696360 -0.3428586403
H -3.4430312100 0.7180112600 -1.3152427600 -0.3403358223 -0.8883464518 0.4404506796
21
Properties=species:S:1:pos:R:3:forces:R:3 energy=-17617.8126435 step=1600 source_index=78531 energy_unit=electron_volt forces_unit=electron_volt_per_angstrom step_unit=dimensionless
C 2.2225789600 0.1076371700 0.7746587400 3.4502008468 -1.8675972459 2.9661104183
C 1.0591110500 1.3935017100 -1.3531967600 -0.5100820211 0.4835529651 1.5362111773
C 3.0134444300 0.9678179200 0.0694952500 0.6859820529 2.0415962039 -1.0413342502
C 2.3522859900 1.7530708800 -0.9283608200 0.6041478949 -1.3278671119 -0.2542793469
C -3.2452168000 -0.7412391500 -1.0309787700 0.8415657401 -0.7235069981 2.7701576827
C 0.9285359700 -0.1794934500 0.5394801900 -3.7985095064 -0.1536887840 -1.1169274662
C 0.2762115100 0.5211381700 -0.5393630600 -0.4409923082 -0.6734386680 -1.8173212220
O 0.9881645000 -2.1249546500 1.9142623700 2.0853847683 -1.8803977925 2.0603658756
O -2.5053764300 1.4806465800 -0.2126400100 -0.4640941863 -2.2485532619 0.2839672605
O -0.9656041700 -1.5741730200 1.0491805100 -1.3151647814 -0.4259106786 0.1864410929
C 0.3564352600 -1.3595595000 1.2742376300 -1.6611224240 1.2924578762 -1.7349025493
C -2.2899383900 0.3395267900 -0.6134680400 1.7472887884 3.5800175016 -0.8550334367
O -0.9463134700 0.1455295300 -1.1766041300 0.1428538973 -0.8674356681 1.5536424868
H -1.2739608400 -2.4141562500 1.5263895100 0.8818458797 1.1591599474 -0.5163691916
H 2.7165186300 -0.5225680800 1.6142618500 -0.6791716115 0.7781421221 -1.1445221417
H 0.5381449700 1.8623585300 -2.2018336600 0.1744722981 0.0730625818 0.0024070156
H 4.1308896800 1.0696849900 0.2638728600 -1.2504137540 0.0610866908 -0.0503795879
H 2.9337505400 2.4866126400 -1.4845819000 0.1391579876 0.3309341200 -0.3243313209
H -3.5981704300 -0.4823536500 -2.0210923700 -0.4413007892 -0.1982974790 -0.7299601076
H -2.6520148600 -1.6915141700 -0.9225568300 -0.5526153728 0.3292521556 -0.7115431399
H -4.0497053800 -0.7920105300 -0.2241589200 0.3605666006 0.2374315749 -1.0623993001
21
Properties=species:S:1:pos:R:3:forces:R:3 energy=-17617.8309672 step=1700 source_index=155849 energy_unit=electron_volt forces_unit=electron_volt_per_angstrom step_unit=dimensionless
C 1.9474821000 -1.0430860300 -0.2247890800 0.2888445407 -1.1348570041 1.1201665422
C 1.0144509400 1.2310522300 -1.3282494800 0.0174102265 -0.9890940576 -1.4604314021
C 2.4825259900 -0.7533273800 -1.4582944300 -0.8631902622 2.3974832935 -1.0819969700
C 1.9541341600 0.4649456300 -2.0694511000 1.1782012819 0.4756433255 0.9861805861
C -3.2753012600 1.6740345600 0.1282748400 1.9269500874 2.1300982614 -2.1371059579
C 0.9121681800 -0.3333193100 0.4624195800 0.2111462596 -2.2173062312 -0.2542004654
C 0.3312955200 0.7455133400 -0.2079185500 0.0355975433 0.0868036381 -0.2420344671
O -0.7703771100 -1.0446677200 2.0731053300 -1.3657203356 1.0230638868 -0.4419365717
O -2.1740066300 0.1411592700 -1.4489566200 0.6102109166 0.9290536517 1.3044077991
O 1.1475137200 -1.9880173300 2.1638269000 4.1353825667 -1.5030729458 -0.3827768200
C 0.3511203800 -1.1336579600 1.6063348900 -2.3803134652 1.5836490630 0.5221935120
C -2.0827060500 0.9339746600 -0.5292178800 0.1367661930 0.0816780406 0.2208521234
O -0.8543894200 1.3640982000 0.1073180000 -0.9960054406 -0.4894495336 0.1252748007
H 0.8320617100 -2.4141895500 2.9656020800 -0.9971516899 0.0074807795 0.3756426252
H 2.2841236700 -1.9901462400 0.2619205100 -0.0258169118 0.5803662685 -0.0713931644
H 0.5774929900 2.1232061900 -1.7603065200 -0.0541131900 0.5931977199 -0.3921491603
H 3.2901368200 -1.3705244900 -1.8717032500 -0.1189654673 0.0099491416 -0.2948995920
H 2.3808689200 0.9932744400 -2.9816727900 -0.3303884290 -0.9681837367 0.6429728928
H -2.9633559700 2.6313119000 0.6910168900 -0.2767085214 -1.4868414674 -0.2825245629
H -3.8107930700 2.0492977500 -0.8036221000 -0.2073768163 -0.4995186943 0.9651171303
H -3.8202890800 0.9444923100 0.6874220800 -0.9247591891 -0.6101433480 0.7786411732
21
Properties=species:S:1:pos:R:3:forces:R:3 energy=-17617.5078901 step=1800 source_index=56425 energy_unit=electron_volt forces_unit=electron_volt_per_angstrom step_unit=dimensionless
C 2.1047846000 -0.3528931700 -0.3904040800 -0.5871991300 2.0461649003 1.3050468211
C 0.8695785100 1.8839157400 0.7491111700 -2.0640368455 0.0938153969 0.7764257563
C 2.8180354400 0.8447042400 -0.1981323700 1.3058679801 -0.7898320549 -0.8103090421
C 2.2310377400 1.8756508400 0.4506601800 -1.8427151873 0.3778315083 0.1521719873
C -3.5780764100 0.7544586200 -0.1560091500 -0.4145495899 1.6143647494 0.0236045287
C 0.7868662100 -0.4873069100 0.0889089200 -0.3371739308 1.8871206622 0.0299563368
C 0.1011913600 0.7205592400 0.6310726600 0.5890732073 -2.2142371565 -1.1366511715
O -0.6001996000 -2.2179391700 0.8889030700 -1.3728693399 -1.1691884333 0.6402185212
O -1.5001637300 0.7710206400 -1.5047864800 -1.2895249672 0.4857890537 2.3070260661
O 0.8847714700 -2.6349375300 -0.8684607900 -1.1008044369 -1.8523931289 1.3462708641
C 0.1941329000 -1.8417057300 0.0823401600 2.0753365363 0.0856040127 -1.1826973703
C -2.0830379600 0.7943038100 -0.4210407100 1.9470219715 -1.9393165290 -0.9183594043
O -1.2779509500 0.6681833100 0.8843271700 -0.3351004388 0.9132868744 -2.1575754889
H 0.7528475500 -3.6404082200 -0.6323463500 -0.0928419772 2.3238868993 -0.4160255061
H 2.6424981900 -1.1746078000 -0.7256763500 0.8767799319 -2.0479860642 -1.0959273623
H 0.2807038100 2.7862322700 1.0683223500 0.7423096314 -0.3687888349 0.0163226498
H 3.8589241700 1.0824226700 -0.5471596200 -0.4822262243 -0.9368042428 0.1363199009
H 2.7923878200 2.7241102400 0.6631756200 1.2403093692 2.1515963366 0.3815621793
H -3.6084214100 1.4731750600 0.7531135600 -0.7941254890 -1.0816592298 -0.8765669931
H -4.1068498600 1.2714836500 -1.0842800500 0.8691220548 -1.0121160258 1.6661388524
H -4.0734459600 -0.2794503600 0.0611119100 1.0673469258 1.4328612549 -0.1869521768
21
Properties=species:S:1:pos:R:3:forces:R:3 energy=-17617.7665933 step=1900 source_index=196338 energy_unit=electron_volt forces_unit=electron_volt_per_angstrom step_unit=dimensionless
C 1.8457846900 -1.4610795700 -0.5105709400 2.3996571100 -0.2351394363 -0.6500274862
C 0.9805850100 1.0852864300 -1.2652316000 2.3113734420 1.1508930273 -0.7059792722
C 2.6857925200 -0.6335854800 -1.3253522700 0.6341232064 -0.1807880593 0.9848761111
C 2.3588394000 0.7002888900 -1.5608673000 -3.1599949583 -1.5850712945 0.0137843023
C -2.6103402000 1.9842314100 1.2265699400 -2.5266361923 -0.0051649867 -1.6474718706
C 0.5789000100 -1.0770761500 -0.1374890300 0.7798122594 2.1403681739 -1.2243298589
C 0.1761131700 0.2332885300 -0.5293989000 -1.1282091078 0.5071269491 0.7613345108
O 0.3200712900 -2.3816564600 1.8079569300 0.1663049826 0.8304547683 -0.3399878492
O -1.0203674300 2.8198652000 -0.2615534000 -0.0036911274 0.7487584728 -0.3463537469
O -1.4971586700 -1.9992075800 0.5393193300 0.8055242702 1.1232418390 -0.5942753207
C -0.1560026500 -1.7980511700 0.8349641300 -2.0540832302 -3.2892827886 2.1156417185
C -1.5215102500 1.8608180500 0.2894714700 2.3993461607 0.8622521694 -1.5680692050
O -1.0112812400 0.6255128900 0.1154036200 -0.2943588890 -1.5049361216 -0.0366245962
H -1.9114741600 -2.2093390100 1.3874335300 -0.1645258819 -0.5290501305 0.4887539473
H 2.3712324400 -2.3254260200 -0.0461959800 -0.7383372767 -0.1414687925 -0.3386704158
H 0.6794117200 2.1147532800 -1.5493946100 -0.1799600612 -0.4849624954 0.4015599643
H 3.7143672800 -0.9676426200 -1.6085467900 -0.5217634179 -0.1024541500 0.2655326550
H 3.0565685700 1.3057575800 -2.0959676700 0.5039750849 1.0343612636 -0.5242767743
H -3.4801506300 1.3220853600 0.9998943700 0.2572276825 0.1787391470 0.2641983037
H -2.3135335600 1.9253378000 2.2034057800 1.2177395553 -1.2624138134 3.3988140549
H -2.8740558600 3.0343442500 1.2549118600 -0.7035236114 0.7445363097 -0.7184290690
21
Properties=species:S:1:pos:R:3:forces:R:3 energy=-17617.5946197 step=2000 source_index=58097 energy_unit=electron_volt forces_unit=electron_volt_per_angstrom step_unit=dimensionless
C 2.3225255700 -0.4868871500 -0.4295923300 0.5869591947 -0.3019478091 2.4964995698
C 0.8220637400 1.8281637500 0.1854549300 -1.9847413950 0.9563369151 -0.9460421658
C 2.9805343700 0.7801925300 -0.2575919900 -0.8949272937 -1.4202109635 -1.6335004948
C 2.1810847600 1.9146005400 -0.0640946600 0.4998571543 -0.8849451906 0.8602917545
C -3.3928418700 0.1151690700 -0.0163191800 2.0263742435 2.4448633808 0.5228426128
C 0.9317682600 -0.5701763500 0.0144759100 1.1202575079 -0.6061700677 -2.2168734631
C 0.1501316300 0.5849179500 0.0971568300 0.4579250294 0.9540051815 1.5898654253
O -0.7517972700 -2.3323757000 -0.2283172600 -2.0667803671 0.0710802096 -1.8544543825
O -2.0580748000 1.9278607800 -1.0058054900 0.6478377803 1.9551009954 -1.0732116126
O 0.9358626700 -2.6236518900 1.0724363400 1.2141329657 -2.5296886577 1.2540652350
C 0.2914115200 -1.9064061100 0.1787193400 0.0006358339 0.5920077618 0.8676028926
C -2.1521478300 1.0477192300 -0.2183246400 -3.1435058553 -2.6370658535 -0.4610591016
O -1.1951660600 0.4750616300 0.5067662500 2.7507492461 -0.6174863678 0.4345548310
H 0.4214467000 -3.5124533200 1.0848544100 0.8024464537 1.4700398211 0.1036095524
H 2.9607249600 -1.4677252900 -0.4635640500 -1.1747565176 1.5510902554 -0.2124996884
H 0.1397575100 2.7338542200 0.2748154300 0.9415073565 -0.7153122232 0.1717454373
H 4.0585121300 0.9341694700 -0.4666682600 -0.2127096447 -0.3155907007 0.1718865909
H 2.7591753100 2.7883739400 0.1269129300 0.1993351763 1.5888564215 -0.0623518279
H -3.3840604600 -0.6520711400 -0.7200281800 0.4916334288 -1.8653757097 -1.8990833892
H -3.2011844400 -0.3286935800 0.9238240400 -0.4959247031 -0.7841972762 1.6985538325
H -4.3008109900 0.6259054800 -0.1592826400 -1.7663055431 1.0946097747 0.1875583916
21
Properties=species:S:1:pos:R:3:forces:R:3 energy=-17617.6787727 step=2100 source_index=147435 energy_unit=electron_volt forces_unit=electron_volt_per_angstrom step_unit=dimensionless
C 1.8992394100 -1.2956064400 -0.4307707400 -0.6152044621 -2.2685338718 1.5505663159
C 0.7743299000 1.0344173100 -1.4279951100 1.3136159487 -2.8909563982 0.3795146555
C 2.3547643600 -0.7933003000 -1.5758035100 1.5624591603 1.8420599673 -4.0004276646
C 1.9427020100 0.5111370800 -2.0634531400 -0.6504916732 -0.8004211442 1.0018719272
C -3.3576727200 1.3540683500 0.4097295500 0.8478657147 0.8034858994 -0.5663805975
C 0.7867319000 -0.8581135300 0.2412893000 -1.9279838766 3.1213227867 1.4616634748
C 0.1494552400 0.2652881900 -0.3826073800 0.2965121366 1.4909409889 0.0031758269
O 1.0423345200 -2.4581303000 1.8911262500 -0.6990002692 0.8297294601 1.7468796230
O -1.9425827300 1.8786312700 -1.5110297900 -0.1458545292 0.5781608275 -0.0220330189
O -0.1948288300 -0.5628075500 2.4738523200 0.1951608871 -0.7373168571 1.3637524645
C 0.5424142100 -1.3517740800 1.6873679800 0.7930929339 -1.4840877128 -3.3000007929
C -2.0165239300 1.4448519000 -0.3770765400 -1.4295254025 -0.0079298484 -1.4973339346
O -1.0163971500 0.7763234500 0.1987754600 0.7432896331 -1.3301929320 1.6423381999
H -0.2149137000 -1.0063991700 3.3804935700 -0.0087419057 0.3960490099 -0.9634964610
H 2.3148383800 -2.2182681800 -0.0593505100 0.4589802102 -0.7118258070 0.3681075954
H 0.2418363600 1.8691603000 -1.7739099600 -0.6740990816 1.6984052741 -0.5981068304
H 2.9855703700 -1.4923198000 -2.1896432400 0.2642865440 0.9632888187 0.3690559726
H 2.5113780200 1.0851572400 -2.8485677500 -0.6185269962 -0.5983600841 0.3766549200
H -3.1657229700 0.6936210600 1.2367602600 -0.0311124591 -0.4510611090 1.1000364483
H -3.7449269900 2.3679667300 0.7758906000 0.2982958139 -1.0566757669 -0.6092266982
H -4.0562360500 0.8099209000 -0.2758717400 0.0269816216 0.6139184477 0.1933886770
21
Properties=species:S:1:pos:R:3:forces:R:3 energy=-17617.986119 step=2200 source_index=192001 energy_unit=electron_volt forces_unit=electron_volt_per_angstrom step_unit=dimensionless
C 1.8608842500 -1.1940233300 -0.2676266700 1.5790687452 -2.2771702081 1.1160540624
C 1.5118110500 1.4576056900 -0.6963992900 0.5981478652 -0.1843730002 -1.0835736734
C 2.8714963500 -0.4798774800 -0.8360425300 2.8180643834 -1.5984473570 -0.4774305509
C 2.7225303300 0.8318183700 -1.0804210400 -1.6792587301 2.1274871517 0.4492243642
C -2.8692164400 1.9813917900 0.4749455300 1.1951660390 -0.5486122677 -1.4018389901
C 0.7381003400 -0.6417231400 0.2197407900 -2.8680632937 0.1439298012 -0.1981924751
C 0.4776771400 0.6690521900 -0.1900049900 -0.1843750056 1.7079632995 1.4715837172
O -1.0682082200 -1.0620649100 1.8059097900 0.6987383252 -0.1421441699 -0.9097756728
O -2.0446723700 0.5499544800 -1.4338315200 0.7671570829 0.5708277836 1.9019514035
O -0.1908642600 -2.7844525500 0.6692059800 0.5387362997 -0.3908241679 -0.7983713063
C -0.2490877600 -1.4846263900 0.9830913500 -1.1022140700 1.2917696433 0.9518546077
C -1.8456535600 1.1246955500 -0.3622161000 -2.3914409949 0.5728257366 -0.7379083652
O -0.6665600400 1.3203100200 0.2801230600 0.7881141465 -0.4308715198 -0.5673338083
H -1.0376180800 -3.1544973900 0.9641512700 -0.2820801220 -0.3320048303 0.5235984658
H 2.0276227900 -2.1856115000 0.1189796100 0.4488335050 -1.0274983716 -0.2487432471
H 1.4740261900 2.5394978100 -0.8535985000 -0.6552030145 0.1723360712 0.0565376376
H 3.9109193400 -0.8827335600 -0.9424478900 -0.7339892323 -0.3142367576 -0.2643528270
H 3.5215078600 1.4207573800 -1.4691753200 0.9247037047 0.7432604254 -0.4494103064
H -3.9324166400 1.7100902100 0.4083132100 -0.0490462137 0.1612378521 -0.5304959134
H -2.5537678600 1.9262333200 1.4918613300 0.2990756295 -0.3758606548 1.4901001352
H -2.5699313600 3.0192794800 0.2185260700 -0.7101351523 0.1304054889 -0.2934773090
21
Properties=species:S:1:pos:R:3:forces:R:3 energy=-17618.0665262 step=2300 source_index=182677 energy_unit=electron_volt forces_unit=electron_volt_per_angstrom step_unit=dimensionless
C 1.8108270100 -1.2254234300 -0.2787391100 0.4088672457 -0.4593554885 0.5104884097
C 1.6222155800 1.5053277400 -0.5246030700 2.3072847191 -0.8822085081 -1.1720156185
C 2.9481380600 -0.5129300300 -0.7279996800 -1.9802492146 -0.4518734234 0.8140902610
C 2.8188274600 0.8481359100 -0.9111380200 -0.8210952836 0.6881718617 0.3800016224
C -2.8472707000 1.4847169600 0.6327356400 -0.2848115080 0.8093060033 -1.0965699325
C 0.6064040600 -0.6387654800 0.1130226300 -0.2946866532 -0.6388955342 -0.1474144690
C 0.6033945200 0.7716403900 0.0026711900 -2.0659668186 0.3501646877 0.7778235109
O -1.3281935400 -1.1376593000 1.5762997500 1.0182506270 -0.2234697123 -1.4951716880
O -1.6626300300 0.8512979600 -1.3514853200 -0.4278203914 -1.2831431801 -3.1698593049
O -0.5465637200 -2.7584075700 0.2394524500 0.1226152514 -1.1644912845 -0.5805901602
C -0.5361536700 -1.5130986100 0.6864683100 -0.3615898483 2.1234707282 1.8969081843
C -1.6789213400 1.1987962700 -0.2313785700 0.7711852306 1.3389598803 3.1221905341
O -0.4879131400 1.4908842500 0.4401469000 -0.3394900321 -0.3479587838 0.4084308781
H -1.2522358900 -3.2651290300 0.7247069900 0.3737023163 0.5670440964 -0.1596372888
H 1.9308481800 -2.2872244100 -0.0475094100 0.0100470492 -0.3674092323 -0.2546642410
H 1.6233847400 2.5551740200 -0.7703134700 -0.7114726403 0.7710704565 0.3291624755
H 3.8008544700 -1.1356208100 -0.7049606000 1.8079181827 -0.3915243307 -0.7355390420
H 3.5441314900 1.5295575700 -1.3160145600 1.1463099841 0.1213194667 -0.3577174067
H -2.6382974900 1.9007795700 1.6164082500 0.2921727826 1.2530183846 0.0405820900
H -3.5765460700 1.9356259100 -0.0814798300 -0.1646157163 0.3228644035 0.8720467363
H -3.2550462200 0.5773820100 0.9864928200 -0.8065552826 -2.1350604909 0.0174544495
21
Properties=species:S:1:pos:R:3:forces:R:3 energy=-17617.873034 step=2400 source_index=192191 energy_unit=electron_volt forces_unit=electron_volt_per_angstrom step_unit=dimensionless
C 1.8557848700 -1.2701621300 -0.3357440800 -0.0419463174 -0.1518196433 0.2846690688
C 1.3937661300 1.3638810800 -0.6392362700 -0.7777895210 1.1282689117 -0.1593914399
C 2.7344258200 -0.4894147500 -1.0575664700 0.9921185494 -1.6200822663 -0.9695592256
C 2.5007885700 0.8199449600 -1.2388709000 0.0848818926 2.8019630542 0.7108848346
C -2.8628568200 2.0357027600 0.3108797400 -0.7981103907 0.6128498457 -0.8338975272
C 0.6869733600 -0.7718386400 0.2771040600 -0.2383837574 1.9035255873 -0.9406813124
C 0.4478249300 0.5978692300 -0.0213015000 -0.6334122449 -0.9666771730 1.1369461285
O -1.4130900800 -1.2804948300 1.4596666700 1.4538459836 -0.0632202438 0.2669383286
O -1.8386674300 0.9447962500 -1.4876493100 0.9626776674 0.1629217705 0.2467024595
O 0.2963280500 -2.7798988300 1.1048878000 0.1039485267 -0.8286128299 1.2035062870
C -0.2696954200 -1.5485804600 1.0929922700 -0.8209847775 -0.6174211132 -1.4451074717
C -1.7300448900 1.4173197100 -0.3689557400 -0.0770448095 -1.4467366770 -0.8166243405
O -0.6615998300 1.2593265500 0.4672081000 0.2989833269 0.0680691905 0.2060842712
H -0.0463094200 -3.2940575200 1.8541544700 -0.5808653197 -0.3553878842 0.0875718323
H 2.2039213500 -2.2730276800 -0.3152600000 -0.2646469613 -1.5800754350 0.6530996462
H 1.1856886300 2.4240608200 -0.5551809700 0.1224736350 0.7143295989 -0.4738532719
H 3.6161042600 -0.9144470200 -1.5508504400 0.1375248228 -0.4169902869 0.1745435177
H 3.2046851100 1.5711707400 -1.5591387300 0.8387050791 0.0750689680 -0.9079077662
H -3.5054113100 2.2379624400 -0.5942723500 -0.0297244747 0.8315364829 1.0314311313
H -3.3763179000 1.2046672700 0.8004759200 -0.1805474555 -0.2564636535 0.7281975649
H -2.5495216900 2.8380687500 1.0118353900 -0.5517034539 0.0049537963 -0.1835527668
21
Properties=species:S:1:pos:R:3:forces:R:3 energy=-17618.0703621 step=2500 source_index=8324 energy_unit=electron_volt forces_unit=electron_volt_per_angstrom step_unit=dimensionless
C 2.2562989300 -0.3377077600 0.2291394900 1.0501321546 1.1059846960 -0.0110840781
C 0.8840324100 2.0624332400 -0.0136808300 0.8437815170 -0.9013831286 -0.4137028741
C 2.9932271300 0.8840193100 0.2341262600 -0.9547216451 0.6127250957 -0.9313990122
C 2.2812035900 2.1147668200 -0.0106708500 -0.3963860815 -3.1208267695 1.2261367275
C -3.3721650200 0.1488651400 -0.3569639700 -1.3250123130 -1.4547603708 -0.9479943017
C 0.8946522200 -0.4393970700 -0.0447921900 -1.3102551566 1.6058029752 0.6324666445
C 0.2437582700 0.8352711300 -0.1160374800 -1.5655416561 -1.2987312656 -1.3976729284
O -1.1527587000 -1.8163492600 -0.2566613100 2.6151814958 -0.7220634264 0.0312365406
O -1.8830235600 0.5384262000 1.4093085700 -0.0244458966 0.0006416446 0.3724527087
O 0.9929162700 -2.6961960300 -0.3044436700 -1.4043632479 -2.9534588927 -0.3681413283
C 0.0919127400 -1.7216542900 -0.2038086300 -0.8131517568 1.9337994039 0.0457192059
C -2.1109257100 0.4884495100 0.2240528200 2.6780538179 1.1463170804 1.2912022008
O -1.0455826800 0.8163505700 -0.6914129100 -0.9393618736 0.1452913547 1.0309054435
H 0.4455405000 -3.5596581900 -0.4248571900 1.0117669728 1.3614502471 0.2322318269
H 2.8415559700 -1.2099164600 0.3851837200 0.6317841708 -1.3602126722 0.1402870105
H 0.3309220000 2.9631739100 -0.1280796700 -0.8846439087 1.0214294364 -0.2415740853
H 4.1042055000 0.8264671000 0.2542846100 -0.4334505421 0.1505670017 0.1721051347
H 2.6777503200 3.0663942900 -0.1860263900 1.4486581654 1.7628494660 -0.0504532757
H -4.2267694400 0.1847931300 0.3687240400 0.5700846833 0.0150684141 -0.4573499250
H -3.5378171100 0.6511680900 -1.2900673300 -0.4922457627 1.1021172423 -0.8510330570
H -3.2031646800 -0.8749824200 -0.7693949500 -0.3058631367 -0.1526075322 0.4956614222
21
Properties=species:S:1:pos:R:3:forces:R:3 energy=-17617.819523 step=2600 source_index=86937 energy_unit=electron_volt forces_unit=electron_volt_per_angstrom step_unit=dimensionless
C 2.2700376200 -0.4742025500 -0.0949740500 3.1898201688 -1.0525879183 0.2424185385
C 0.4292848400 1.0728094600 -1.5860709200 1.4313075885 0.0482314825 2.0841118150
C 2.7655893800 0.4984489400 -1.0010065600 -1.6595456177 -0.8192296395 1.1687681607
C 1.8372416000 1.2433125300 -1.6898653900 -1.6214462880 -0.7355043835 -0.3385293136
C -3.4278676000 0.8474546700 -0.3022976000 -0.5154053363 0.1024155834 -1.1876716326
C 0.9263549300 -0.6847959000 0.1999236100 -0.4964127500 2.3007958199 -0.9141025313
C 0.0304596800 0.3031622100 -0.4407719900 0.8548825130 -1.0979281950 -1.0907472061
O -0.4335750600 -1.6558317600 1.9969906200 1.1361131938 0.7084385326 -1.2962753991
O -1.6623252900 2.4239244200 0.3729115800 -0.3202220806 0.5763606437 -0.1089235089
O 1.0587341500 -2.9620699200 0.9274133800 1.4483073641 2.7863539885 -2.1946889547
C 0.4592267000 -1.7209587800 1.1367121200 -1.7182847369 -2.0809535230 1.6904580450
C -2.0919243700 1.3629726900 0.0171239800 1.5012215457 -1.2481961774 0.3732379236
O -1.2692713900 0.2434543700 -0.1516165500 -0.6490129803 -0.6390245522 0.3933264685
H 0.7008780700 -3.5782963400 1.5312955700 -1.1644315321 -1.2931961943 1.7984691207
H 3.1389604300 -1.0879771300 0.3734175200 -1.6756585683 0.4479632894 -0.3650904570
H -0.2526014100 1.7001986700 -2.2016414500 0.0700732113 -0.3669465365 0.4622271024
H 3.8099839300 0.6519505900 -1.1712443400 1.0677060575 0.0219909043 -0.0081911240
H 2.1948224200 1.8970802000 -2.4213938300 0.7109314744 1.5535019503 -1.6290044578
H -4.0352885000 1.7510815800 -0.2284671100 -1.0612311965 -0.0428385931 -0.1748317384
H -3.3216482000 0.4371832200 -1.3822489200 -0.5973294316 0.4956577712 1.3602955646
H -3.7337883800 0.0221228400 0.3864134500 0.0686174526 0.3346956957 -0.2652565185
21
Properties=species:S:1:pos:R:3:forces:R:3 energy=-17617.5742009 step=2700 source_index=106327 energy_unit=electron_volt forces_unit=electron_volt_per_angstrom step_unit=dimensionless
C 2.2753696800 -0.8751653300 -0.2001817800 -2.7836263049 -0.5705574577 1.4529483085
C 0.9082422600 1.1595537700 -1.5583291300 1.0993019355 1.4274828666 -0.7380045245
C 2.6655499200 -0.5108199600 -1.4460990900 1.4534763103 2.6891392843 -1.8172659947
C 2.0721578900 0.6686743500 -2.1284793700 -0.3042274522 -3.3691550405 2.9199357157
C -2.9532807500 1.6199134800 0.5766113600 -0.9489613451 -0.8944829556 -1.9601178865
C 1.0202550300 -0.3536440000 0.3366677300 0.2978718389 -1.6776723079 0.0474040500
C 0.3354333400 0.6033559000 -0.3813986000 1.0328614361 0.3640171242 -1.2096083895
O 0.1747044200 -2.3371541100 1.4232563800 -0.4887951363 1.5117404438 0.0758166963
O -2.4168653000 -0.1913090500 -1.1043448500 0.0753672160 0.5966924664 0.6459244166
O -0.2052418600 -0.2936832300 2.4391117200 -1.0303292079 -1.1876938470 -0.4115707095
C 0.2298674300 -1.1047971300 1.4072368900 1.7956643555 -0.7508904832 0.6714121243
C -2.1640599000 0.6749492100 -0.3084607400 1.5073289447 0.8275904049 0.0674451323
O -0.8114849400 1.0823994100 0.0850745000 -2.1556663418 0.4155298488 0.0496366419
H -0.8340533000 -0.8695444500 2.9793471800 0.8948959263 0.5101011501 -0.4522494216
H 2.7104044300 -1.7238682400 0.3429586800 0.3127172355 0.0489730401 0.0295006858
H 0.7589901800 2.1853627300 -1.9718052900 -1.3697057001 -0.4429664528 0.3654770481
H 3.6694383800 -0.8477202200 -1.7511620300 -0.1456811340 -0.2794007752 -0.4763445682
H 2.4701243100 1.1228957300 -2.9997656500 0.7863164824 0.4629205804 -1.1476362621
H -2.4201786300 2.5694928400 0.6265958000 -0.1166407271 0.4126938703 0.0881922910
H -4.0117169800 1.6460088200 0.2549079400 0.0643373368 0.3310682802 -0.0145005602
H -2.9167348400 1.1116787800 1.5077599300 0.0234944341 -0.4251299374 1.8136052577
21
Properties=species:S:1:pos:R:3:forces:R:3 energy=-17617.5551168 step=2800 source_index=197203 energy_unit=electron_volt forces_unit=electron_volt_per_angstrom step_unit=dimensionless
C 1.8748238200 -1.1009941200 -0.2591074800 0.1356980024 -2.2444565172 2.1342302302
C 1.1191046500 0.8398013900 -1.9969674400 -1.5139788464 0.5272037183 1.0104610580
C 2.6577872600 -0.7671326200 -1.2993669200 1.9184902317 0.8825755074 -2.4300851414
C 2.3484417600 0.2068239300 -2.2701573800 -2.2080565325 -0.1926834233 -0.0834256196
C -2.9577433000 1.5211708600 0.7109151200 -0.2153472368 -0.3674963413 -2.3898168289
C 0.5913251100 -0.6134517000 -0.0721860100 0.3843122315 0.0400782051 0.4677459244
C 0.2562872000 0.4150702000 -0.8819300900 -1.5046283605 2.6327438288 -1.9248969071
O 0.2837429300 -2.1718919900 1.6750237700 -0.6487655887 2.1056267052 -1.1509621386
O -0.6762068100 1.7124770800 1.5354878000 -0.4700570892 -0.4164098860 -1.4461328791
O -1.5515749500 -1.1109348200 1.0173608300 -0.2622167029 0.8892461323 -0.5607488526
C -0.2179266500 -1.2601548400 0.9474045800 0.6299720057 -4.1842046830 2.5780860277
C -1.4352425800 1.4238328600 0.6180808100 -0.0252852076 -0.1649779847 0.7827851234
O -1.0817156200 0.9563730600 -0.6537396400 1.8181182126 0.2197106049 -0.4599155776
H -1.8421611300 -1.6885461100 1.7552273400 0.2214197716 -0.1436259482 -0.0001427991
H 2.1050269300 -1.8879800300 0.4944884000 0.4344999123 0.1646420958 -0.4729296287
H 0.7625009000 1.7087383900 -2.5627025300 -0.1824719778 -0.0236305483 -0.3092242373
H 3.6050945600 -1.1799325100 -1.5736458600 1.1119754182 -1.2409170238 0.6609354951
H 2.8486709000 0.2460859100 -3.2980747400 -0.2196817571 0.4361313802 1.4492177404
H -3.1031200300 2.4851878900 1.2165931700 -0.6357066976 0.2106406264 0.0279483565
H -3.4106769000 1.4641038800 -0.4041835500 0.7082608179 0.3629950078 2.3485818329
H -3.4203510000 0.6794092400 1.3005285900 0.5234493418 0.5068085437 -0.2317111785
21
Properties=species:S:1:pos:R:3:forces:R:3 energy=-17617.7880467 step=2900 source_index=199361 energy_unit=electron_volt forces_unit=electron_volt_per_angstrom step_unit=dimensionless
C 1.6744204100 -1.4768840500 -0.7304952900 -2.3271587311 0.7097095833 1.2347417477
C 0.8614501900 0.9592667500 -1.9616467900 0.1589433480 0.4809451464 1.4887798736
C 2.3801386800 -1.0042875800 -1.7928334000 2.0939049935 0.3032176771 -1.0864878134
C 1.9833475300 0.2208726800 -2.3731129700 -0.6315305058 0.0806818924 -1.1751616720
C -2.5725424300 1.8687815600 1.1813054900 3.1208772145 1.2168250652 -0.1085719362
C 0.4583101000 -0.7659977200 -0.3268411400 0.0545804623 -1.0210657281 1.8114918107
C 0.1128660700 0.5324554500 -0.8165174400 1.2834678076 -0.6488070863 -0.7024295555
O -1.6952309300 -1.6401833500 0.4553882700 2.7419882113 0.5024310345 0.9607573103
O -0.1305795600 1.6985397400 1.8823320400 -1.9758113359 -0.3388379489 -1.1799938552
O 0.1819016900 -1.9207196000 1.8470762200 -0.7806281219 0.0679312251 -0.6151889841
C -0.4764833000 -1.4639631200 0.6972274700 -1.5072572109 -0.4945080766 0.0218284620
C -1.0589231800 1.6345442900 1.0806235300 1.2771249470 0.3320154232 0.1173591448
O -0.8534423200 1.3614423900 -0.2962231400 0.0626206625 -0.7302100189 -0.2591426917
H -0.4030937800 -2.4198291700 2.5094249700 0.2994109528 0.7858837657 -1.4227164523
H 2.0386553800 -2.3546621600 -0.1808536900 -0.4221030802 -0.1576596989 0.1021980167
H 0.7164512300 2.0058381100 -2.3189262600 -0.1488088812 -0.5681108986 -0.1483370838
H 3.3534505800 -1.5523236500 -2.0779856300 -1.2882610642 0.8560713912 0.0392141601
H 2.4314655400 0.6056854700 -3.3014583100 0.5576674881 -0.0713570146 0.1322982324
H -2.7639581300 2.3280154000 2.1091094000 -0.4696773372 1.4282340916 1.5440692920
H -2.8693236100 2.4211689200 0.2936584400 -0.6102458322 -0.0127631114 -0.3228336017
H -2.9282872100 0.9072882600 1.3265120200 -1.4891038327 -2.7206267132 -0.4318744043
21
Properties=species:S:1:pos:R:3:forces:R:3 energy=-17617.7894414 step=3000 source_index=162871 energy_unit=electron_volt forces_unit=electron_volt_per_angstrom step_unit=dimensionless
C 2.1399961800 -1.0614338500 -0.1879451700 1.0696471377 -1.2982568456 1.3085022812
C 0.9060160200 1.1503301000 -1.4500820000 -1.6866761062 1.3779960686 0.8385089553
C 2.7996822200 -0.4243456800 -1.2149705600 -1.2040323861 1.8542060653 -2.4159999686
C 2.0883075500 0.6731426900 -1.9124893700 1.9794176683 -3.1193802153 1.2720369391
C -3.0905425500 1.9180316600 0.1447416500 -0.3770619257 -0.7424855463 1.9287050197
C 0.9378816200 -0.5974643200 0.3747318500 -0.7357175794 1.7748059194 -2.0508265164
C 0.3205392400 0.5077242000 -0.3541204000 -1.3156025374 -0.1759705315 2.2240686444
O -0.8263098300 -0.9913662900 1.9334271300 -1.1363465472 0.4281379741 0.4133254876
O -2.5302726300 0.3106235400 -1.4603029600 1.7887548237 -0.0090334174 0.7977064190
O 1.0879300600 -2.1198673700 2.1806344900 -1.1467097907 -0.6472286345 1.6861734041
C 0.2988004400 -1.1998312000 1.5506829900 0.3656240638 -0.9320271841 -0.0020956035
C -2.1635460700 0.9910680600 -0.5182575500 0.1638671138 -0.2666569470 -1.1222360747
O -0.8774374500 1.0833126400 0.1644025200 -0.1874368812 -0.7749883038 -1.5811946877
H 0.4652020000 -2.4583265200 2.9540732100 1.4626635826 0.7613837731 -1.8152365714
H 2.5596688300 -2.0081304200 0.2436655400 -0.0401899453 0.6673143512 -0.0690962949
H 0.4275802400 2.1216549800 -1.8009889700 0.2509416433 -1.2611914080 -0.1180602332
H 3.7450663500 -0.7445468000 -1.7091247600 -0.4085118678 -0.2631992244 0.4995228595
H 2.3420920700 0.7931324300 -2.9310380800 1.0711168318 1.1526786586 -1.4664026868
H -3.7937620300 2.4439861400 -0.4809011200 -0.1340799042 0.5351370121 -1.0288374023
H -3.7931026500 1.2239756500 0.7060279100 0.5898207299 0.6088544539 0.2170886451
H -2.5009380800 2.5701054600 0.7975654200 -0.3694880722 0.3299039303 0.4843474874
21
Properties=species:S:1:pos:R:3:forces:R:3 energy=-17617.7618802 step=3100 source_index=151469 energy_unit=electron_volt forces_unit=electron_volt_per_angstrom step_unit=dimensionless
C 2.0325090100 -0.9324223600 -0.1858103900 -1.6457042884 0.5876116893 -0.9802584609
C 1.1374119300 1.3752477600 -1.3452024900 1.8597065810 -0.3958214672 -1.8676825551
C 2.6913357800 -0.4283598700 -1.3066345500 1.8856877863 -1.6712492803 1.0726512149
C 2.2551553300 0.7128883000 -1.9149687400 0.6482720397 1.7314984085 -1.5501000720
C -3.2991113700 1.3151280100 0.0661993200 1.0325197879 -0.6973464841 -0.3791865312
C 0.7681726600 -0.4389900800 0.2203995300 2.8917520518 0.2981675672 -1.0401105078
C 0.4135376100 0.7895592200 -0.3565323800 -3.3708879127 0.4302675676 0.9806580618
O -0.0920230600 -0.2607579400 2.3626839200 0.6145220913 -0.2108428694 0.1624300213
O -1.9528894700 -0.5351844600 -0.7411403600 0.2074520982 -1.1718713796 -0.3401506000
O -0.1459244100 -2.2605232600 1.3985688000 0.8827951311 -1.5521798376 -1.2126417772
C 0.2349446000 -0.9935674000 1.4279124200 -3.1558059110 1.4928197969 2.0764454018
C -2.0091207400 0.5586478400 -0.2763116000 0.2651326427 2.6036506114 1.2552152382
O -0.8721412000 1.4187914000 -0.0624824800 0.4864382573 -1.7063354825 -0.1990640277
H -0.5281240800 -2.5094991900 2.2509643600 -0.2257061609 0.1733563879 0.6784915546
H 2.4064697300 -1.7991079000 0.2879572600 0.6332578244 -1.3593879651 0.8050773095
H 0.9140714000 2.3036125000 -1.8173227800 -0.9599768776 1.1023057556 -0.2291806471
H 3.6575856800 -0.9693897400 -1.4894162300 -0.5356272701 0.5514309169 -0.6249478641
H 2.8233487500 1.1400320800 -2.8524207200 -1.0677082172 -0.5467989713 1.7033883296
H -4.0287796800 0.8511635400 -0.5656677200 -0.9937137648 -0.1405640726 -0.9697021275
H -3.7513272200 1.2760169600 1.0439761700 0.2859526665 -0.7440172554 1.3853187767
H -3.2141344700 2.3742932000 -0.0624084500 0.2616414443 1.2253063639 -0.7266506862
