113
wwPDB CCD TA1 ideal coordinates; source_sha256=2d7c4609811c04d9965f6ed27c7e33753409b29721fe8c61a11d453bab17dfd3
O -1.44600000 2.75600000 1.66300000
C -0.43800000 1.72800000 1.71500000
C -1.02000000 0.58900000 2.58100000
O -2.27500000 0.21100000 1.90500000
C -3.42500000 0.84000000 2.21700000
O -3.42800000 1.71900000 3.05600000
C -4.68200000 0.46100000 1.54000000
C -5.87500000 1.11100000 1.86100000
C -7.04500000 0.75300000 1.22400000
C -7.03800000 -0.24800000 0.27000000
C -5.86000000 -0.89600000 -0.05300000
C -4.68100000 -0.54400000 0.57100000
C -0.10700000 -0.63100000 2.65800000
C -0.70700000 -1.84500000 1.99700000
O -0.54200000 -1.78300000 0.54300000
C -0.89400000 -2.83000000 -0.21800000
O -1.44300000 -3.78300000 0.28200000
C -0.60500000 -2.81800000 -1.69700000
C -2.12600000 -2.23500000 2.41300000
O -1.62300000 -3.28100000 3.25200000
C -0.39600000 -3.24000000 2.52200000
C 0.82900000 -3.29300000 3.43500000
C 0.65300000 -2.22000000 4.50300000
O -0.58400000 -2.34800000 5.18700000
C 0.74100000 -0.82700000 3.87000000
C 0.25100000 0.04300000 5.01600000
C 2.20800000 -0.52500000 3.69700000
O 3.02000000 -1.43900000 3.78700000
C 2.69500000 0.88400000 3.42400000
O 2.67200000 1.71700000 4.59900000
C 3.72900000 1.74000000 5.42700000
O 4.70000000 1.06300000 5.18500000
C 3.70400000 2.61100000 6.65600000
C 1.88900000 1.35800000 2.25000000
C 2.14100000 0.83000000 1.05500000
C 1.26300000 1.20600000 -0.11500000
O 1.40800000 0.17700000 -1.14500000
C 2.37000000 0.28900000 -2.07500000
O 3.11600000 1.24000000 -2.06100000
C 2.51900000 -0.76900000 -3.13600000
O 3.60400000 -0.42700000 -4.00100000
C 1.22700000 -0.86100000 -3.95100000
N 0.95700000 0.43100000 -4.58500000
C -0.31300000 0.81100000 -4.82500000
O -1.23400000 0.08200000 -4.51500000
C -0.58600000 2.11500000 -5.46500000
C -1.90000000 2.51200000 -5.71500000
C -2.14800000 3.73100000 -6.31200000
C -1.09700000 4.55900000 -6.66400000
C 0.20800000 4.17100000 -6.42000000
C 0.46900000 2.95800000 -5.81800000
C 1.37700000 -1.92000000 -5.01200000
C 0.52300000 -3.00800000 -5.02900000
C 0.66100000 -3.97900000 -6.00200000
C 1.65100000 -3.86300000 -6.96000000
C 2.50400000 -2.77600000 -6.94400000
C 2.36400000 -1.80200000 -5.97300000
C -0.20300000 1.27700000 0.28700000
C 3.30100000 -0.12200000 0.83700000
C 0.80100000 2.37500000 2.31100000
C 1.19000000 3.61000000 1.47700000
C 0.47300000 2.89500000 3.70600000
H -2.23100000 2.35700000 1.26200000
H -1.33500000 0.98000000 3.54300000
H -5.88200000 1.89300000 2.60700000
H -7.96900000 1.25500000 1.47200000
H -7.95700000 -0.52400000 -0.22500000
H -5.86100000 -1.67700000 -0.79800000
H -3.76200000 -1.05100000 0.31800000
H 0.66300000 -0.38200000 1.89100000
H -0.96000000 -3.74600000 -2.14400000
H -1.11400000 -1.97300000 -2.16000000
H 0.46900000 -2.72600000 -1.85600000
H -2.73700000 -2.60800000 1.58500000
H -2.66300000 -1.48700000 3.00300000
H -0.34600000 -3.99000000 1.73000000
H 1.72800000 -3.10500000 2.85100000
H 0.89300000 -4.27800000 3.90000000
H 1.47100000 -2.29700000 5.22700000
H -0.60100000 -3.23500000 5.57000000
H 0.67600000 1.04300000 4.92000000
H -0.83600000 0.10600000 4.98500000
H 0.56300000 -0.39300000 5.96400000
H 3.76700000 0.82500000 3.12100000
H 4.64200000 2.49900000 7.20000000
H 3.57700000 3.65300000 6.36100000
H 2.87400000 2.31100000 7.29700000
H 1.59000000 2.14700000 -0.55400000
H 2.72000000 -1.73100000 -2.66400000
H 3.38700000 0.42700000 -4.39800000
H 0.40000000 -1.12200000 -3.29100000
H 1.69200000 1.01300000 -4.83300000
H -2.72200000 1.86700000 -5.44100000
H -3.16500000 4.03900000 -6.50600000
H -1.29600000 5.51100000 -7.13200000
H 1.02400000 4.82200000 -6.69700000
H 1.48900000 2.65600000 -5.62700000
H -0.24900000 -3.09800000 -4.28000000
H -0.00500000 -4.82900000 -6.01500000
H 1.75800000 -4.62300000 -7.72000000
H 3.27800000 -2.68500000 -7.69200000
H 3.03000000 -0.95200000 -5.96000000
H -0.67500000 0.31200000 0.12300000
H -0.70400000 1.99300000 -0.38000000
H 3.33500000 -0.41900000 -0.21000000
H 4.23400000 0.37400000 1.10400000
H 3.16900000 -1.00500000 1.46100000
H 1.20400000 3.34400000 0.42000000
H 0.46200000 4.40400000 1.64300000
H 2.17900000 3.95500000 1.77900000
H 1.39800000 3.11900000 4.23700000
H -0.12700000 3.80100000 3.62400000
H -0.08500000 2.13600000 4.25400000
