 Sr V O
1.0
   3.8465199999999999   0.0000000000000000   0.0000000000000000
   0.0000000000000000   3.8465199999999999   0.0000000000000000
   0.0000000000000000   0.0000000000000000   3.8465199999999999
 Sr V O
 1 1 3
Direct
   0.0000000000000000   0.0000000000000000   0.0000000000000000
   0.5000000000000000   0.5000000000000000   0.5000000000000000
   0.5000000000000000   0.5000000000000000   0.0000000000000000
   0.5000000000000000   0.0000000000000000   0.5000000000000000
   0.0000000000000000   0.5000000000000000   0.5000000000000000
