COD 9012293 diamond 2x2x2 supercell with zero velocities
1
7.1337999999999999 0 0
0 7.1337999999999999 0
0 0 7.1337999999999999
C
64
Direct
0 0 0
0 0.25 0.25
0.125 0.125 0.125
0.125 0.375 0.375
0.25 0 0.25
0.25 0.25 0
0.375 0.125 0.375
0.375 0.375 0.125
0 0 0.5
0 0.25 0.75
0.125 0.125 0.625
0.125 0.375 0.875
0.25 0 0.75
0.25 0.25 0.5
0.375 0.125 0.875
0.375 0.375 0.625
0 0.5 0
0 0.75 0.25
0.125 0.625 0.125
0.125 0.875 0.375
0.25 0.5 0.25
0.25 0.75 0
0.375 0.625 0.375
0.375 0.875 0.125
0 0.5 0.5
0 0.75 0.75
0.125 0.625 0.625
0.125 0.875 0.875
0.25 0.5 0.75
0.25 0.75 0.5
0.375 0.625 0.875
0.375 0.875 0.625
0.5 0 0
0.5 0.25 0.25
0.625 0.125 0.125
0.625 0.375 0.375
0.75 0 0.25
0.75 0.25 0
0.875 0.125 0.375
0.875 0.375 0.125
0.5 0 0.5
0.5 0.25 0.75
0.625 0.125 0.625
0.625 0.375 0.875
0.75 0 0.75
0.75 0.25 0.5
0.875 0.125 0.875
0.875 0.375 0.625
0.5 0.5 0
0.5 0.75 0.25
0.625 0.625 0.125
0.625 0.875 0.375
0.75 0.5 0.25
0.75 0.75 0
0.875 0.625 0.375
0.875 0.875 0.125
0.5 0.5 0.5
0.5 0.75 0.75
0.625 0.625 0.625
0.625 0.875 0.875
0.75 0.5 0.75
0.75 0.75 0.5
0.875 0.625 0.875
0.875 0.875 0.625
Cartesian
0 0 0
0 0 0
0 0 0
0 0 0
0 0 0
0 0 0
0 0 0
0 0 0
0 0 0
0 0 0
0 0 0
0 0 0
0 0 0
0 0 0
0 0 0
0 0 0
0 0 0
0 0 0
0 0 0
0 0 0
0 0 0
0 0 0
0 0 0
0 0 0
0 0 0
0 0 0
0 0 0
0 0 0
0 0 0
0 0 0
0 0 0
0 0 0
0 0 0
0 0 0
0 0 0
0 0 0
0 0 0
0 0 0
0 0 0
0 0 0
0 0 0
0 0 0
0 0 0
0 0 0
0 0 0
0 0 0
0 0 0
0 0 0
0 0 0
0 0 0
0 0 0
0 0 0
0 0 0
0 0 0
0 0 0
0 0 0
0 0 0
0 0 0
0 0 0
0 0 0
0 0 0
0 0 0
0 0 0
0 0 0
